14 6
39 34 15 2 8 13 32 32 1 45 49 39 1 5
0 47 21 47 10 33 25 28 9 14 12 45 26 28 31
43 0 5 19 7 26 1 30 30 8 21 7 41 48 25
1 3 0 22 27 31 39 25 31 42 9 13 28 48 43
6 25 37 0 40 16 40 48 33 34 6 24 24 29 40
37 46 10 49 0 17 27 3 8 7 43 1 10 50 28
3 42 14 3 43 0 38 48 32 2 40 47 40 12 45
5 26 18 32 11 43 0 37 26 34 11 32 21 48 47
40 49 15 19 16 45 5 0 35 23 15 21 43 22 30
4 49 34 7 40 5 21 28 0 36 43 4 31 50 22
42 29 49 48 41 13 31 19 31 0 8 36 43 40 27
36 5 5 32 49 16 30 28 19 5 0 47 36 15 3
33 9 47 14 43 31 14 15 32 20 11 0 38 23 4
24 27 44 21 48 47 40 46 26 42 19 47 0 33 43
8 49 24 32 32 11 36 12 2 41 14 23 4 0 17
23 28 47 23 10 2 35 47 3 3 42 21 45 41 0